; benchmark generated from python API
(set-info :status unknown)
(declare-datatypes ((RealState 0)) (((RMk1 (rval1 Real)) (RMk2 (rval2 Real)))))
 (assert
 (forall ((|v11:0| Real) )(exists ((|v10:1_st| RealState) (val!3276 Real) )(forall ((|v9:2| Real) )(exists ((|v8:3_st| RealState) (val!3277 Real) )(forall ((|v7:4| Real) )(exists ((|v6:5_st| RealState) (val!3278 Real) )(forall ((|v5:6| Real) )(exists ((|v4:7_st| RealState) (val!3279 Real) )(forall ((|v3:8| Real) )(exists ((|v2:9_st| RealState) (val!3280 Real) )(forall ((|v1:10| Real) )(exists ((|v0:11_st| RealState) (val!3281 Real) )(let ((?x3093 (- 17.0)))
 (let ((?x2265 (* ?x3093 |v1:10|)))
 (let ((?x762 (+ (+ (+ (* (- 5.0) |v3:8|) (* (- 6.0) (rval2 |v6:5_st|))) ?x2265) (* ?x3093 (rval2 |v2:9_st|)))))
 (let ((?x678 (* 8.0 |v11:0|)))
 (let ((?x1898 (rval2 |v4:7_st|)))
 (let ((?x2018 (* 2.0 ?x1898)))
 (let (($x1390 (<= (+ (+ (+ (* 12.0 (rval2 |v8:3_st|)) (* 5.0 |v1:10|)) ?x2018) ?x678) ?x3093)))
 (let ((?x1576 (- 18.0)))
 (let ((?x1663 (rval2 |v2:9_st|)))
 (let ((?x313 (* 4.0 ?x1663)))
 (let ((?x2799 (+ (+ (+ (* (- 19.0) |v3:8|) (* 10.0 |v7:4|)) (* (- 12.0) |v3:8|)) ?x313)))
 (let ((?x155 (* 2.0 |v5:6|)))
 (let ((?x235 (+ (+ (+ (rval2 |v6:5_st|) (* 8.0 |v1:10|)) (* (- 5.0) (rval2 |v10:1_st|))) ?x155)))
 (let ((?x1236 (- 11.0)))
 (let ((?x1644 (+ (+ (+ (* (- 8.0) ?x1898) (* ?x1236 |v11:0|)) (* 20.0 |v1:10|)) (* (- 2.0) ?x1663))))
 (let ((?x1319 (+ (+ (+ (* 14.0 |v7:4|) (* (- 10.0) |v1:10|)) (* 11.0 |v11:0|)) (* 18.0 (rval2 |v6:5_st|)))))
 (let ((?x1974 (rval2 |v8:3_st|)))
 (let ((?x170 (* 19.0 ?x1974)))
 (let (($x3049 (<= (+ (+ (+ (* 3.0 ?x1663) (* 19.0 |v9:2|)) (* 5.0 ?x1663)) ?x170) 12.0)))
 (let (($x655 (or (and $x3049 (<= ?x1319 5.0)) (or (<= ?x1644 ?x1236) (<= ?x235 15.0)))))
 (let ((?x32 (- 4.0)))
 (let ((?x1675 (* 6.0 ?x1974)))
 (let ((?x2305 (+ (+ (+ (* 8.0 (rval2 |v6:5_st|)) (* 14.0 |v1:10|)) (* 15.0 |v1:10|)) ?x1675)))
 (let ((?x488 (* 7.0 |v1:10|)))
 (let (($x599 (<= (+ (+ (+ (* 11.0 ?x1663) (* 2.0 |v11:0|)) (* 16.0 |v5:6|)) ?x488) 1.0)))
 (let ((?x1366 (- 20.0)))
 (let ((?x723 (* ?x1366 |v3:8|)))
 (let ((?x2957 (+ (+ (+ (* 0.0 |v5:6|) (* 4.0 ?x1898)) (* (- 12.0) |v1:10|)) ?x723)))
 (let ((?x498 (- 1.0)))
 (let ((?x370 (* ?x498 |v3:8|)))
 (let ((?x636 (+ (+ (+ (* ?x3093 |v9:2|) (* (- 12.0) ?x1898)) (* ?x1366 (rval2 |v0:11_st|))) ?x370)))
 (let (($x1296 (or (or (<= ?x636 7.0) (<= ?x2957 6.0)) (or $x599 (<= ?x2305 ?x32)))))
 (let ((?x1397 (+ (+ (+ (* 16.0 |v7:4|) (* 4.0 (rval2 |v10:1_st|))) (* (- 10.0) |v7:4|)) (* (- 19.0) |v1:10|))))
 (let ((?x2227 (- 2.0)))
 (let ((?x2173 (* ?x2227 |v1:10|)))
 (let ((?x462 (+ (+ (* 10.0 |v11:0|) (* (- 5.0) (rval2 |v6:5_st|))) (* (- 7.0) ?x1663))))
 (let ((?x111 (- 10.0)))
 (let ((?x1473 (* ?x111 |v3:8|)))
 (let ((?x23 (+ (+ (+ (* 17.0 (rval2 |v10:1_st|)) (* 7.0 |v3:8|)) (* 13.0 |v3:8|)) ?x1473)))
 (let ((?x1401 (+ (+ (+ (* 4.0 |v3:8|) (* ?x3093 |v3:8|)) (* 14.0 |v7:4|)) (* ?x111 ?x1663))))
 (let (($x1456 (or (and (<= ?x1401 19.0) (<= ?x23 5.0)) (and (<= (+ ?x462 ?x2173) 15.0) (<= ?x1397 18.0)))))
 (let (($x3115 (and (and $x1456 $x1296) (or $x655 (and (<= ?x2799 ?x1576) (and $x1390 (<= ?x762 8.0)))))))
 (let ((?x628 (* 10.0 |v11:0|)))
 (let ((?x712 (+ (+ (* (- 16.0) |v7:4|) (* (- 5.0) |v1:10|)) (* (- 12.0) |v7:4|))))
 (let ((?x1783 (+ (+ (* (- 14.0) (rval2 |v6:5_st|)) (* (- 6.0) |v7:4|)) (* (- 5.0) ?x1663))))
 (let ((?x1432 (+ (+ (+ (* (- 14.0) ?x1898) (* (- 15.0) ?x1974)) |v7:4|) (* (- 19.0) ?x1898))))
 (let ((?x936 (- 9.0)))
 (let ((?x682 (* 18.0 |v9:2|)))
 (let (($x2537 (<= (+ (+ (+ ?x370 (* ?x2227 |v9:2|)) (* 2.0 (rval2 |v0:11_st|))) ?x682) ?x936)))
 (let (($x224 (or (or $x2537 (<= ?x1432 17.0)) (or (<= (+ ?x1783 (* ?x32 |v9:2|)) 13.0) (<= (+ ?x712 ?x628) 16.0)))))
 (let ((?x1525 (- 16.0)))
 (let ((?x2219 (* 9.0 |v5:6|)))
 (let (($x2150 (<= (+ (+ (+ (* 10.0 |v3:8|) (* 8.0 |v3:8|)) (* 6.0 |v1:10|)) ?x2219) ?x1525)))
 (let ((?x1494 (- 6.0)))
 (let ((?x1885 (* ?x1494 |v3:8|)))
 (let (($x1874 (and (<= (+ (+ (+ (* ?x1576 |v9:2|) (* (- 12.0) |v5:6|)) |v5:6|) ?x1885) ?x936) $x2150)))
 (let ((?x2769 (* 16.0 |v7:4|)))
 (let (($x1462 (<= (+ (+ (+ (* 7.0 ?x1663) |v11:0|) (* 3.0 (rval2 |v6:5_st|))) ?x2769) 14.0)))
 (let ((?x1176 (- 15.0)))
 (let ((?x470 (+ (+ (+ (* 14.0 |v1:10|) (* 15.0 |v7:4|)) (* 12.0 |v5:6|)) (* ?x1236 (rval2 |v0:11_st|)))))
 (let (($x901 (<= (+ (+ (+ (* 5.0 |v11:0|) ?x678) ?x2173) (* (- 13.0) ?x1974)) ?x111)))
 (let ((?x2736 (+ (+ (+ (* 10.0 |v1:10|) (* ?x1176 |v5:6|)) (* ?x1236 (rval2 |v10:1_st|))) ?x2018)))
 (let ((?x140 (* ?x111 |v1:10|)))
 (let ((?x1581 (+ (+ (+ (* 3.0 |v9:2|) (* ?x111 |v5:6|)) (* 13.0 (rval2 |v6:5_st|))) ?x140)))
 (let ((?x1000 (+ (+ (* (- 5.0) ?x1974) (* (- 8.0) (rval2 |v10:1_st|))) (* ?x936 ?x1663))))
 (let (($x2329 (or (and (<= (+ ?x1000 (* 15.0 (rval2 |v6:5_st|))) 11.0) (<= ?x1581 19.0)) (and (<= ?x2736 ?x1494) $x901))))
 (let ((?x2406 (- 14.0)))
 (let ((?x2507 (* 10.0 |v7:4|)))
 (let ((?x890 (+ (+ (+ (* (- 13.0) |v3:8|) (* 3.0 |v5:6|)) (* 2.0 (rval2 |v6:5_st|))) ?x2507)))
 (let ((?x2101 (rval2 |v6:5_st|)))
 (let ((?x1851 (* 9.0 ?x2101)))
 (let ((?x2580 (+ (+ (* (- 12.0) ?x2101) (* (- 19.0) (rval2 |v10:1_st|))) (* ?x936 ?x1898))))
 (let ((?x246 (* 20.0 |v3:8|)))
 (let ((?x1192 (+ (+ (+ (* (- 13.0) |v11:0|) (* 16.0 |v3:8|)) (* 7.0 |v11:0|)) ?x246)))
 (let ((?x1713 (- 3.0)))
 (let (($x161 (<= (+ (+ (+ ?x313 (* ?x1176 ?x1663)) (* 13.0 |v7:4|)) (* 2.0 |v1:10|)) ?x1713)))
 (let (($x611 (and (or $x161 (<= ?x1192 0.0)) (or (<= (+ ?x2580 ?x1851) ?x1366) (<= ?x890 ?x2406)))))
 (let (($x298 (and (and (or $x611 $x2329) (or (or (and (<= ?x470 ?x1176) $x1462) $x1874) $x224)) $x3115)))
 (let (($x1873 (<= (+ (+ (+ (* ?x1713 ?x1663) |v9:2|) (* 2.0 |v11:0|)) (* 18.0 ?x1974)) 19.0)))
 (let ((?x1986 (+ (+ (+ (* 17.0 |v11:0|) (* ?x1525 ?x1663)) (* 12.0 (rval2 |v10:1_st|))) (* ?x3093 |v11:0|))))
 (let ((?x2725 (+ (+ (+ (* ?x111 (rval2 |v0:11_st|)) (* 19.0 |v7:4|)) (* 3.0 ?x1974)) ?x1675)))
 (let ((?x2598 (- 5.0)))
 (let ((?x1657 (+ (+ (+ (* 20.0 (rval2 |v0:11_st|)) (* 0.0 |v1:10|)) (* ?x1713 |v3:8|)) (* ?x1236 ?x1974))))
 (let (($x2132 (<= (+ (+ (+ ?x682 (* ?x498 ?x1974)) (* 13.0 |v3:8|)) (* 4.0 ?x1898)) 0.0)))
 (let ((?x1798 (+ (+ (+ (* 7.0 |v5:6|) (* (- 7.0) (rval2 |v0:11_st|))) (* 12.0 |v5:6|)) (* 0.0 ?x1663))))
 (let ((?x3065 (* 19.0 |v1:10|)))
 (let ((?x3011 (+ (+ (+ (* ?x3093 (rval2 |v0:11_st|)) (* 2.0 |v3:8|)) (* ?x1366 ?x2101)) ?x3065)))
 (let (($x1779 (and (and (<= ?x3011 ?x3093) (and (<= ?x1798 0.0) $x2132)) (and (and (<= ?x1657 ?x2598) (<= ?x2725 ?x936)) (or (<= ?x1986 ?x1236) $x1873)))))
 (let ((?x2466 (+ (+ (+ (* ?x936 |v5:6|) (* 9.0 |v3:8|)) (* (- 8.0) (rval2 |v0:11_st|))) (* ?x936 ?x2101))))
 (let ((?x531 (- 8.0)))
 (let ((?x1010 (* ?x1494 ?x1663)))
 (let (($x1471 (<= (+ (+ (+ ?x1010 (* 5.0 (rval2 |v10:1_st|))) (* ?x2227 |v9:2|)) ?x1010) ?x531)))
 (let ((?x1728 (* ?x936 ?x1974)))
 (let (($x1983 (<= (+ (+ (+ (* ?x498 ?x1663) (* ?x2406 |v7:4|)) (* 0.0 |v9:2|)) ?x1728) 7.0)))
 (let ((?x2419 (* 3.0 |v1:10|)))
 (let ((?x113 (+ (+ (+ (* ?x531 |v7:4|) (* 8.0 ?x1898)) (* ?x32 (rval2 |v10:1_st|))) ?x2419)))
 (let (($x3023 (<= (+ (+ (+ (* ?x111 ?x1974) ?x2219) (* ?x1576 (rval2 |v10:1_st|))) ?x1728) ?x1176)))
 (let ((?x2770 (+ (+ (+ (* ?x531 |v3:8|) (* 16.0 ?x1663)) (* (- 12.0) |v5:6|)) (* ?x498 |v7:4|))))
 (let ((?x2833 (+ (+ (+ (* ?x498 ?x2101) (* (- 13.0) |v11:0|)) (* 11.0 |v9:2|)) (* ?x1366 |v5:6|))))
 (let ((?x391 (* 12.0 |v1:10|)))
 (let (($x913 (<= (+ (+ (+ (* 14.0 |v5:6|) (* (- 12.0) |v3:8|)) (* ?x1236 |v5:6|)) ?x391) ?x1713)))
 (let (($x2588 (or (or (and $x913 (<= ?x2833 17.0)) (or (<= ?x2770 12.0) $x3023)) (or (or (<= ?x113 ?x1713) $x1983) (and $x1471 (<= ?x2466 18.0))))))
 (let ((?x852 (+ (+ (+ (* 3.0 (rval2 |v0:11_st|)) (* 6.0 |v9:2|)) (* 15.0 ?x1663)) (* ?x1366 ?x1898))))
 (let (($x243 (<= (+ (+ (+ (* 6.0 |v1:10|) ?x140) (* ?x2406 |v11:0|)) (* ?x1494 ?x1974)) ?x2406)))
 (let ((?x1653 (* 11.0 ?x2101)))
 (let (($x2621 (<= (+ (+ (+ (* 3.0 |v9:2|) (* ?x1176 |v5:6|)) (* ?x1576 ?x1974)) ?x1653) ?x1236)))
 (let ((?x2171 (- 7.0)))
 (let ((?x2128 (+ (+ (+ (* 18.0 ?x1974) (* ?x936 |v9:2|)) (* ?x2227 |v5:6|)) (* ?x2171 (rval2 |v10:1_st|)))))
 (let ((?x1324 (rval2 |v0:11_st|)))
 (let ((?x302 (* 13.0 ?x1324)))
 (let ((?x1600 (+ (+ (+ (* (- 13.0) ?x1663) (* ?x1713 ?x1663)) (* (- 12.0) ?x2101)) ?x723)))
 (let (($x664 (and (<= ?x1600 ?x3093) (<= (+ (+ (+ (* 14.0 ?x1663) (* ?x1525 ?x1898)) ?x391) ?x302) ?x936))))
 (let ((?x1948 (- 13.0)))
 (let ((?x1808 (+ (+ (+ (* ?x936 ?x1324) (* ?x1366 (rval2 |v10:1_st|))) (* ?x32 |v3:8|)) (* ?x1236 ?x2101))))
 (let (($x3174 (<= (+ (+ (+ (* 8.0 ?x1898) ?x488) (* 18.0 ?x1663)) (* 16.0 ?x1898)) ?x1576)))
 (let (($x3005 (and (and (or $x3174 (<= ?x1808 ?x1948)) $x664) (or (or (<= ?x2128 ?x2171) $x2621) (and $x243 (<= ?x852 1.0))))))
 (let ((?x816 (* 15.0 |v3:8|)))
 (let (($x3039 (<= (+ (+ (+ (* ?x498 ?x1663) (* 14.0 ?x1324)) (* ?x1576 |v11:0|)) ?x816) 2.0)))
 (let ((?x1006 (+ (+ (+ (* 20.0 ?x1898) (* ?x2406 |v9:2|)) (* ?x531 |v3:8|)) (* 12.0 |v9:2|))))
 (let ((?x143 (* 15.0 |v5:6|)))
 (let ((?x1661 (+ (+ (+ (* 7.0 |v9:2|) (* ?x1713 |v9:2|)) (* ?x111 (rval2 |v10:1_st|))) ?x143)))
 (let ((?x2461 (* ?x2406 |v11:0|)))
 (let (($x689 (<= (+ (+ (+ (* (- 19.0) |v11:0|) (* ?x2171 ?x1974)) (* ?x1366 ?x2101)) ?x2461) 3.0)))
 (let ((?x744 (- 12.0)))
 (let ((?x388 (* 4.0 |v3:8|)))
 (let ((?x1392 (+ (+ (+ (* 15.0 |v9:2|) (* 8.0 (rval2 |v10:1_st|))) (* 11.0 |v9:2|)) ?x388)))
 (let ((?x924 (+ (+ (+ (* 19.0 ?x1324) (* ?x3093 ?x2101)) (* 0.0 |v5:6|)) (* ?x498 ?x1898))))
 (let ((?x2536 (+ (+ (+ (* ?x936 |v9:2|) (* 5.0 (rval2 |v10:1_st|))) (* ?x531 |v9:2|)) ?x170)))
 (let (($x2738 (<= (+ (+ (+ (* ?x498 |v1:10|) ?x1885) (* ?x1948 ?x2101)) (* 15.0 |v1:10|)) ?x1576)))
 (let (($x3186 (and (and (or $x2738 (<= ?x2536 ?x1948)) (or (<= ?x924 ?x1176) (<= ?x1392 ?x744))) (or (and $x689 (<= ?x1661 15.0)) (or (<= ?x1006 ?x2598) $x3039)))))
 (let (($x1423 (not (= |v0:11_st| (RMk1 val!3281)))))
 (let (($x937 (not (= |v2:9_st| (RMk1 val!3280)))))
 (let (($x1277 (not (= |v4:7_st| (RMk1 val!3279)))))
 (let (($x1151 (not (= |v6:5_st| (RMk1 val!3278)))))
 (let (($x1011 (not (= |v8:3_st| (RMk1 val!3277)))))
 (let (($x439 (not (= |v10:1_st| (RMk1 val!3276)))))
 (and $x439 $x1011 $x1151 $x1277 $x937 $x1423 (or (and (or $x3186 $x3005) (or $x2588 $x1779)) $x298)))))))))))))))))))))))))))))))))))))))))))))))))))))))))))))))))))))))))))))))))))))))))))))))))))))))))))))))))))))))))))))))))))))))))))
 )
 )
 )
 )
 )
 )
 )
 )
 )
 )
 )
 )
(check-sat)
